(set-logic QF_FPBV)
(set-info :source |Random FP created by PyMPF|)
(set-info :category random)
(set-info :status unsat)
;; fp.from.ubv(BitVec 128)
(declare-const x (_ BitVec 128))
(assert (= x #b00010011101011000010110000101100100001011110011100010101000101101111001000000100110011001110101000000110100000001001011111011100))
;; x should be 26149302933083971001942759635444340700
(declare-const r Float32)
(assert (= r ((_ to_fp_unsigned 8 24) RNE x)))
(assert (not (fp.eq r (fp #b0 #b11111011 #b00111010110000101100001))))
(check-sat)
(exit)
